10 45
1 2 4
1 3 0
1 4 17
1 5 21
1 6 26
1 7 16
1 8 19
1 9 17
1 10 27
2 3 27
2 4 2
2 5 14
2 6 23
2 7 0
2 8 3
2 9 18
2 10 27
3 4 11
3 5 25
3 6 1
3 7 15
3 8 2
3 9 11
3 10 2
4 5 3
4 6 21
4 7 4
4 8 4
4 9 16
4 10 21
5 6 12
5 7 24
5 8 28
5 9 15
5 10 0
6 7 10
6 8 28
6 9 16
6 10 9
7 8 2
7 9 16
7 10 20
8 9 4
8 10 24
9 10 28
